20 10
48 260 2 23 9 241 255 78 142 5
38 46 30 36 110 27 25 104 86 100
34 23 135 1 78 54 4 37 139 148
27 76 24 91 87 205 41 26 25 57
78 110 14 65 39 20 84 241 151 73
21 44 30 38 13 147 11 60 55 8
109 75 82 18 107 5 29 22 103 58
247 131 7 85 87 114 31 7 126 26
15 51 1 19 44 10 31 51 44 95
90 50 173 115 45 30 31 21 141 74
14 25 8 27 4 5 39 48 7 26
28 6 47 55 75 128 45 30 42 23
1 28 53 22 22 36 25 41 36 7
22 212 180 27 101 4 30 10 36 93
89 25 48 1 59 62 58 113 101 92
2 18 3 58 37 46 54 12 39 31
23 36 50 64 23 10 21 83 29 29
24 46 81 11 205 42 63 9 90 136
88 56 49 2 28 139 18 8 18 3
72 22 59 4 37 142 17 10 24 5
